
Log started (V11.0.0) Mon May 19 12:10:56 2008

Tried aggregator 1 time.
Reduced MIP has 540 rows, 20001 columns, and 40040 nonzeros.
Presolve time =    0.16 sec.
Clique table members: 500.
MIP emphasis: balance optimality and feasibility.
MIP search method: dynamic search.
Parallel mode: none, using 1 thread.
Root relaxation solution time =    1.45 sec.

        Nodes                                         Cuts/
   Node  Left     Objective  IInf  Best Integer     Best Node    ItCnt     Gap

*     0+    0                        34265.0000      341.1294      964   99.00%
*     0+    0                          401.0000      341.1294      964   14.93%
      0     0      342.0000    68      401.0000      Fract: 7      998   14.71%
      0     0      342.0000    71      401.0000       Cuts: 3     1037   14.71%
*     0+    0                          379.0000      342.0000     1037    9.76%
      0     0      342.0000    77      379.0000       Cuts: 4     1071    9.76%
*     0+    0                          373.0000      342.0000     1071    8.31%
*     0+    0                          372.0000      342.0000     1071    8.06%
*     0+    0                          367.0000      342.0000     1071    6.81%
      0     2      342.0000    77      367.0000      342.0000     1071    6.81%
*    20+   19                          366.0000      342.0000     1522    6.56%
*    30+   29                          365.0000      342.0000     1610    6.30%
*    50+   46                          364.0000      342.0000     2283    6.04%
*    50+   46                          363.0000      342.0000     2283    5.79%
*    60+   51                          360.0000      342.0000     2926    5.00%
*    90+   70                          357.0000      342.0000     4750    4.20%
    100    77      343.3886    69      357.0000      342.0000     5178    4.20%
*   200+  134                          356.0000      342.0000    11587    3.93%
    200   135      343.4009    70      356.0000      342.0000    11587    3.93%
    300   188      343.3517    69      356.0000      342.0000    18668    3.93%
    400   252      344.0000    62      356.0000      342.0000    24258    3.93%
    500   303      344.0261    68      356.0000      342.0000    30731    3.93%
*   508+  204                          355.0000      352.5659    34319    0.69%
    600   212      354.0000    41      355.0000      353.0000    36222    0.56%
    700   243      354.0000    32      355.0000      353.0000    38486    0.56%
    800   245    infeasible            355.0000      353.0000    44713    0.56%
    900   307      353.0000    42      355.0000      353.0000    47791    0.56%
   1000   360      353.0000    50      355.0000      353.0000    58481    0.56%
Elapsed time = 148.41 sec. (tree size =  4.53 MB, solutions = 14)
   1100   454      354.0000    39      355.0000      353.0000    63181    0.56%
   1200   528      354.0000    41      355.0000      353.0000    74472    0.56%
   1300   600      353.0000    36      355.0000      353.0000    85671    0.56%
   1400   647      354.0000    51      355.0000      353.0000   115877    0.56%
   1500   678    infeasible            355.0000      353.0000   142812    0.56%
   1600   735      354.0000    45      355.0000      353.0000   155238    0.56%
   1700   814      353.0000    31      355.0000      353.0000   158063    0.56%
   1800   880      353.0000    62      355.0000      353.0000   162104    0.56%
   1900   964      353.0000    54      355.0000      353.0000   166858    0.56%
   2000  1044      353.0000    46      355.0000      353.0000   172900    0.56%
Elapsed time = 291.80 sec. (tree size = 14.21 MB, solutions = 14)
   2100  1125      353.0000    38      355.0000      353.0000   179956    0.56%
   2200  1191      354.0000    53      355.0000      353.0000   206223    0.56%
   2300  1211    infeasible            355.0000      353.0000   242185    0.56%
   2400  1300      353.0000    52      355.0000      353.0000   247751    0.56%
   2500  1394      353.0000    40      355.0000      353.0000   250940    0.56%
   2600  1482      354.0000    80      355.0000      353.0000   254583    0.56%
   2700  1551      354.0000    17      355.0000      353.0000   266271    0.56%
   2800  1651      354.0000    36      355.0000      353.0000   268385    0.56%
   2900  1749      354.0000    29      355.0000      353.0000   271949    0.56%
   3000  1830      354.0000    59      355.0000      353.0000   284480    0.56%
Elapsed time = 436.17 sec. (tree size = 26.01 MB, solutions = 14)
   3100  1882      354.0000    60      355.0000      353.0000   312060    0.56%
   3200  1963      354.0000    56      355.0000      353.0000   326031    0.56%
   3300  2049      354.0000    53      355.0000      353.0000   331692    0.56%
   3400  2149      354.0000    50      355.0000      353.0000   333917    0.56%
   3500  2234    infeasible            355.0000      353.0000   337198    0.56%
   3600  2332      354.0000    27      355.0000      353.0000   340299    0.56%
   3700  2428      354.0000    51      355.0000      353.0000   344829    0.56%
   3800  2523      354.0000    44      355.0000      353.0000   348164    0.56%
   3900  2584      354.0000    56      355.0000      353.0000   355468    0.56%
   4000  2677      354.0000    42      355.0000      353.0000   357032    0.56%
Elapsed time = 548.14 sec. (tree size = 39.79 MB, solutions = 14)
   4100  2777      354.0000    51      355.0000      353.0000   357931    0.56%
   4200  2859      354.0000    53      355.0000      353.0000   366122    0.56%
   4300  2959      354.0000    29      355.0000      353.0000   367933    0.56%
   4400  3013    infeasible            355.0000      353.0000   394599    0.56%
   4500  3041      354.0000    48      355.0000      353.0000   436366    0.56%
   4600  3124      354.0000    46      355.0000      353.0000   443244    0.56%
   4700  3195      354.0000    41      355.0000      353.0000   462342    0.56%
   4800  3263      354.0000    40      355.0000      353.0000   473177    0.56%
   4900  3335      354.0000    55      355.0000      353.0000   485173    0.56%
   5000  3424      354.0000    50      355.0000      353.0000   490977    0.56%
Elapsed time = 689.22 sec. (tree size = 52.72 MB, solutions = 14)
   5100  3456      354.0000    58      355.0000      353.0000   515946    0.56%
   5200  3545      354.0000    41      355.0000      353.0000   520917    0.56%
   5300  3643      354.0000    40      355.0000      353.0000   523900    0.56%
   5400  3741      354.0000    40      355.0000      353.0000   527763    0.56%
   5500  3805      354.0000    39      355.0000      353.0000   530667    0.56%
   5600  3890      354.0000    65      355.0000      353.0000   542066    0.56%
   5700  3959      354.0000    55      355.0000      353.0000   550288    0.56%
   5800  4059      354.0000    58      355.0000      353.0000   552360    0.56%
   5900  4155      354.0000    53      355.0000      353.0000   557376    0.56%
   6000  4243      354.0000    61      355.0000      353.0000   562006    0.56%
Elapsed time = 797.31 sec. (tree size = 68.13 MB, solutions = 14)
   6100  4314      354.0000    55      355.0000      353.0000   569581    0.56%
   6200  4398      354.0000    66      355.0000      353.0000   582846    0.56%
   6300  4493      354.0000    38      355.0000      353.0000   586469    0.56%
   6400  4591      354.0000    37      355.0000      353.0000   589049    0.56%
   6500  4671    infeasible            355.0000      353.0000   599976    0.56%
   6600  4762      354.0000    73      355.0000      353.0000   608936    0.56%
   6700  4841      354.0000    36      355.0000      353.0000   613488    0.56%
   6800  4941      354.0000    55      355.0000      353.0000   616123    0.56%
   6900  5041      354.0000    37      355.0000      353.0000   618384    0.56%
   7000  5129      354.0000    38      355.0000      353.0000   626438    0.56%
Elapsed time = 905.44 sec. (tree size = 85.75 MB, solutions = 14)
   7100  5224      354.0000    52      355.0000      353.0000   630486    0.56%
   7200  5324      354.0000    65      355.0000      353.0000   633814    0.56%
   7300  5410      354.0000    93      355.0000      353.0000   647405    0.56%
   7400  5510      354.0000    43      355.0000      353.0000   650267    0.56%
   7500  5600      354.0000    44      355.0000      353.0000   658097    0.56%
   7600  5688      354.0000    42      355.0000      353.0000   664112    0.56%
   7700  5775      354.0000    46      355.0000      353.0000   670406    0.56%
   7800  5875      354.0000    77      355.0000      353.0000   672124    0.56%
   7900  5975      354.0000    88      355.0000      353.0000   674402    0.56%
   8000  6067      354.0000    36      355.0000      353.0000   680818    0.56%
Elapsed time = 1011.58 sec. (tree size = 105.54 MB, solutions = 14)
   8100  6163      354.0000    40      355.0000      353.0000   685253    0.56%
   8200  6255      354.0000    40      355.0000      353.0000   689443    0.56%
   8300  6334      354.0000    47      355.0000      353.0000   697099    0.56%
   8400  6409      354.0000    44      355.0000      353.0000   709679    0.56%
   8500  6488      354.0000    52      355.0000      353.0000   713950    0.56%
   8600  6570      354.0000    53      355.0000      353.0000   725700    0.56%
   8700  6655      354.0000    21      355.0000      353.0000   731610    0.56%
   8800  6751      354.0000    23      355.0000      353.0000   737096    0.56%
   8900  6825    infeasible            355.0000      353.0000   742288    0.56%
   9000  6900      354.0000    39      355.0000      353.0000   753037    0.56%
Elapsed time = 1128.30 sec. (tree size = 124.03 MB, solutions = 14)
   9100  6976    infeasible            355.0000      353.0000   756700    0.56%
   9200  7034      354.0000    50      355.0000      353.0000   759669    0.56%
Began writing nodes to disk (directory ./cpxa03868 created)
   9300  7113      354.0000    70      355.0000      353.0000   768061    0.56%
   9400  7187      354.0000    59      355.0000      353.0000   777471    0.56%
   9500  7256      354.0000    51      355.0000      353.0000   791061    0.56%
   9600  7337      354.0000    86      355.0000      353.0000   805573    0.56%
   9700  7411      354.0000    66      355.0000      353.0000   825163    0.56%
   9800  7499    infeasible            355.0000      353.0000   830553    0.56%
   9900  7575      354.0000    46      355.0000      353.0000   835099    0.56%
  10000  7664      354.0000    63      355.0000      353.0000   843023    0.56%
Elapsed time = 1285.50 sec. (tree size = 142.57 MB, solutions = 14)
Nodefile size = 14.86 MB (9.89 MB after compression)
  10100  7741      354.0000    85      355.0000      353.0000   852048    0.56%
  10200  7811      354.0000    46      355.0000      353.0000   855521    0.56%
  10300  7871      354.0000   101      355.0000      353.0000   866625    0.56%
  10400  7944    infeasible            355.0000      353.0000   882636    0.56%
  10500  8037      354.0000    38      355.0000      353.0000   890138    0.56%
  10600  8099      354.0000    40      355.0000      353.0000   897395    0.56%
  10700  8158      354.0000   136      355.0000      353.0000   923841    0.56%
  10800  8246      354.0000    84      355.0000      353.0000   934165    0.56%
  10900  8321      354.0000    67      355.0000      353.0000   952502    0.56%
  11000  8398      354.0000    60      355.0000      353.0000   959134    0.56%
Elapsed time = 1514.70 sec. (tree size = 162.76 MB, solutions = 14)
Nodefile size = 35.65 MB (24.10 MB after compression)
  11100  8466      354.0000   102      355.0000      353.0000   984425    0.56%
  11200  8550      354.0000    53      355.0000      353.0000   994897    0.56%
  11300  8610      354.0000    69      355.0000      353.0000  1021306    0.56%
  11400  8695      354.0000    71      355.0000      353.0000  1033807    0.56%
  11500  8749      354.0000    43      355.0000      353.0000  1073200    0.56%
  11600  8800      354.0000   139      355.0000      353.0000  1122132    0.56%
  11700  8880      354.0000    76      355.0000      353.0000  1147126    0.56%
  11800  8951      354.0000    70      355.0000      353.0000  1159353    0.56%
  11900  9037      354.0000    96      355.0000      353.0000  1172590    0.56%
  12000  9059    infeasible            355.0000      353.0000  1224439    0.56%
Elapsed time = 2005.73 sec. (tree size = 185.14 MB, solutions = 14)
Nodefile size = 57.40 MB (39.41 MB after compression)
  12100  9119      354.0000    61      355.0000      353.0000  1266622    0.56%
  12200  9191    infeasible            355.0000      353.0000  1294738    0.56%
  12300  9215    infeasible            355.0000      353.0000  1368177    0.56%
  12400  9291      354.0000    74      355.0000      353.0000  1387584    0.56%
  12500  9372      354.0000    81      355.0000      353.0000  1399318    0.56%
  12600  9461      354.0000    64      355.0000      353.0000  1410414    0.56%
  12700  9509      354.0000   120      355.0000      353.0000  1456332    0.56%
  12800  9586      354.0000    47      355.0000      353.0000  1477928    0.56%
  12900  9669      354.0000    69      355.0000      353.0000  1493944    0.56%
  13000  9765      354.0000    58      355.0000      353.0000  1500361    0.56%
Elapsed time = 2501.11 sec. (tree size = 211.48 MB, solutions = 14)
Nodefile size = 84.05 MB (58.49 MB after compression)
  13100  9846      354.0000    58      355.0000      353.0000  1515288    0.56%
  13200  9929      354.0000    79      355.0000      353.0000  1532500    0.56%
  13300  9973      354.0000   126      355.0000      353.0000  1579598    0.56%
  13400 10028    infeasible            355.0000      353.0000  1636633    0.56%
  13500 10124      354.0000    54      355.0000      353.0000  1645378    0.56%
  13600 10193      354.0000    79      355.0000      353.0000  1660360    0.56%
  13700 10257      354.0000   120      355.0000      353.0000  1705554    0.56%
  13800 10341      354.0000    49      355.0000      353.0000  1727117    0.56%
  13900 10422      354.0000    66      355.0000      353.0000  1740678    0.56%
  14000 10507      354.0000    88      355.0000      353.0000  1750014    0.56%
Elapsed time = 3038.92 sec. (tree size = 242.42 MB, solutions = 14)
Nodefile size = 114.58 MB (80.23 MB after compression)
  14100 10605      354.0000    72      355.0000      353.0000  1755040    0.56%
  14200 10681    infeasible            355.0000      353.0000  1774913    0.56%
  14300 10765      354.0000    73      355.0000      353.0000  1789409    0.56%
  14400 10811      354.0000   157      355.0000      353.0000  1863849    0.56%
  14500 10869      354.0000    95      355.0000      353.0000  1916617    0.56%
  14600 10959      354.0000    52      355.0000      353.0000  1927308    0.56%
  14700 11031      354.0000    66      355.0000      353.0000  1950317    0.56%
  14800 11028    infeasible            355.0000      353.0000  2040738    0.56%
  14900 11049      354.0000   139      355.0000      353.0000  2156153    0.56%
  15000 11100      354.0000    61      355.0000      353.0000  2231197    0.56%
Elapsed time = 4138.81 sec. (tree size = 270.92 MB, solutions = 14)
Nodefile size = 143.00 MB (100.93 MB after compression)
  15100 11119      354.0000   115      355.0000      353.0000  2314207    0.56%
  15200 11146      354.0000   108      355.0000      353.0000  2391430    0.56%
  15300 11165      354.0000   211      355.0000      353.0000  2468305    0.56%
  15400 11180      354.0000   108      355.0000      353.0000  2562119    0.56%
  15500 11217      354.0000   190      355.0000      353.0000  2630901    0.56%
  15600 11209      353.7374   248      355.0000      353.0000  2726202    0.56%
  15700 11254      353.9446   191      355.0000      353.0000  2775842    0.56%
  15800 11291      354.0000   188      355.0000      353.0000  2856324    0.56%
  15900 11341      354.0000   140      355.0000      353.0000  2904845    0.56%
  16000 11430      354.0000    35      355.0000      353.0000  2912247    0.56%
Elapsed time = 5842.05 sec. (tree size = 291.37 MB, solutions = 14)
Nodefile size = 163.65 MB (115.63 MB after compression)
  16100 11506      354.0000    44      355.0000      353.0000  2919210    0.56%
  16200 11564      354.0000    41      355.0000      353.0000  2933139    0.56%
  16300 11569        cutoff            355.0000      353.0000  2997920    0.56%
  16400 11613      354.0000    75      355.0000      353.0000  3042605    0.56%
  16500 11603        cutoff            355.0000      353.0000  3149643    0.56%
  16600 11656      353.9506   205      355.0000      353.0000  3205080    0.56%
  16700 11734      354.0000    63      355.0000      353.0000  3229856    0.56%
  16800 11786        cutoff            355.0000      353.0000  3278642    0.56%
  16900 11830      354.0000    35      355.0000      353.0000  3319669    0.56%
  17000 11926      354.0000    76      355.0000      353.0000  3326958    0.56%
Elapsed time = 6836.66 sec. (tree size = 318.12 MB, solutions = 14)
Nodefile size = 190.30 MB (134.45 MB after compression)
  17100 12018      354.0000    58      355.0000      353.0000  3333706    0.56%
  17200 12090      353.4382   213      355.0000      353.0000  3344982    0.56%
  17300 12132      354.0000    84      355.0000      353.0000  3404927    0.56%
  17400 12166      354.0000    83      355.0000      353.0000  3466452    0.56%

Cover cuts applied:  2696
Mixed integer rounding cuts applied:  2
Gomory fractional cuts applied:  2

Solution pool: 14 solutions saved.

MIP - Time limit exceeded, integer feasible:  Objective = 3.5500000000e+002
Current MIP best bound = 3.5300000000e+002 (gap = 2, 0.56%)
Solution time = 7200.14 sec.  Iterations = 3480709  Nodes = 17414 (12155)


Incumbent solution
Variable Name           Solution Value
Cmax                        355.000000
X_1_8                         1.000000
X_2_8                         1.000000
X_3_32                        1.000000
X_4_15                        1.000000
X_5_1                         1.000000
X_6_19                        1.000000
X_7_35                        1.000000
X_8_15                        1.000000
X_9_27                        1.000000
X_10_40                       1.000000
X_11_8                        1.000000
X_12_15                       1.000000
X_13_15                       1.000000
X_14_8                        1.000000
X_15_2                        1.000000
X_16_8                        1.000000
X_17_35                       1.000000
X_18_15                       1.000000
X_19_13                       1.000000
X_20_15                       1.000000
X_21_28                       1.000000
X_22_31                       1.000000
X_23_8                        1.000000
X_24_36                       1.000000
X_25_34                       1.000000
X_26_15                       1.000000
X_27_22                       1.000000
X_28_32                       1.000000
X_29_8                        1.000000
X_30_8                        1.000000
X_31_15                       1.000000
X_32_35                       1.000000
X_33_15                       1.000000
X_34_37                       1.000000
X_35_15                       1.000000
X_36_21                       1.000000
X_37_25                       1.000000
X_38_14                       1.000000
X_39_25                       1.000000
X_40_33                       1.000000
X_41_8                        1.000000
X_42_8                        1.000000
X_43_36                       1.000000
X_44_18                       1.000000
X_45_22                       1.000000
X_46_20                       1.000000
X_47_8                        1.000000
X_48_8                        1.000000
X_49_20                       1.000000
X_50_2                        1.000000
X_51_14                       1.000000
X_52_12                       1.000000
X_53_28                       1.000000
X_54_32                       1.000000
X_55_15                       1.000000
X_56_10                       1.000000
X_57_20                       1.000000
X_58_34                       1.000000
X_59_24                       1.000000
X_60_6                        1.000000
X_61_7                        1.000000
X_62_24                       1.000000
X_63_24                       1.000000
X_64_20                       1.000000
X_65_36                       1.000000
X_66_14                       1.000000
X_67_15                       1.000000
X_68_2                        1.000000
X_69_8                        1.000000
X_70_28                       1.000000
X_71_15                       1.000000
X_72_18                       1.000000
X_73_20                       1.000000
X_74_18                       1.000000
X_75_28                       1.000000
X_76_32                       1.000000
X_77_25                       1.000000
X_78_15                       1.000000
X_79_15                       1.000000
X_80_30                       1.000000
X_81_29                       1.000000
X_82_10                       1.000000
X_83_8                        1.000000
X_84_29                       1.000000
X_85_20                       1.000000
X_86_15                       1.000000
X_87_8                        1.000000
X_88_35                       1.000000
X_89_8                        1.000000
X_90_18                       1.000000
X_91_29                       1.000000
X_92_22                       1.000000
X_93_5                        1.000000
X_94_20                       1.000000
X_95_28                       1.000000
X_96_15                       1.000000
X_97_8                        1.000000
X_98_19                       1.000000
X_99_28                       1.000000
X_100_15                      1.000000
X_101_16                      1.000000
X_102_28                      1.000000
X_103_17                      1.000000
X_104_28                      1.000000
X_105_6                       1.000000
X_106_8                       1.000000
X_107_21                      1.000000
X_108_35                      1.000000
X_109_35                      1.000000
X_110_15                      1.000000
X_111_34                      1.000000
X_112_33                      1.000000
X_113_15                      1.000000
X_114_36                      1.000000
X_115_36                      1.000000
X_116_15                      1.000000
X_117_32                      1.000000
X_118_15                      1.000000
X_119_11                      1.000000
X_120_35                      1.000000
X_121_23                      1.000000
X_122_25                      1.000000
X_123_28                      1.000000
X_124_13                      1.000000
X_125_8                       1.000000
X_126_40                      1.000000
X_127_29                      1.000000
X_128_8                       1.000000
X_129_30                      1.000000
X_130_28                      1.000000
X_131_18                      1.000000
X_132_8                       1.000000
X_133_28                      1.000000
X_134_24                      1.000000
X_135_19                      1.000000
X_136_35                      1.000000
X_137_23                      1.000000
X_138_18                      1.000000
X_139_28                      1.000000
X_140_15                      1.000000
X_141_15                      1.000000
X_142_15                      1.000000
X_143_5                       1.000000
X_144_1                       1.000000
X_145_14                      1.000000
X_146_20                      1.000000
X_147_20                      1.000000
X_148_23                      1.000000
X_149_33                      1.000000
X_150_29                      1.000000
X_151_8                       1.000000
X_152_8                       1.000000
X_153_27                      1.000000
X_154_8                       1.000000
X_155_32                      1.000000
X_156_8                       1.000000
X_157_9                       1.000000
X_158_8                       1.000000
X_159_8                       1.000000
X_160_8                       1.000000
X_161_33                      1.000000
X_162_35                      1.000000
X_163_23                      1.000000
X_164_28                      1.000000
X_165_35                      1.000000
X_166_8                       1.000000
X_167_23                      1.000000
X_168_5                       1.000000
X_169_15                      1.000000
X_170_35                      1.000000
X_171_7                       1.000000
X_172_8                       1.000000
X_173_28                      1.000000
X_174_2                       1.000000
X_175_22                      1.000000
X_176_15                      1.000000
X_177_33                      1.000000
X_178_15                      1.000000
X_179_15                      1.000000
X_180_32                      1.000000
X_181_31                      1.000000
X_182_24                      1.000000
X_183_35                      1.000000
X_184_15                      1.000000
X_185_36                      1.000000
X_186_8                       1.000000
X_187_1                       1.000000
X_188_31                      1.000000
X_189_2                       1.000000
X_190_16                      1.000000
X_191_23                      1.000000
X_192_8                       1.000000
X_193_35                      1.000000
X_194_2                       1.000000
X_195_40                      1.000000
X_196_33                      1.000000
X_197_11                      1.000000
X_198_20                      1.000000
X_199_35                      1.000000
X_200_8                       1.000000
X_201_20                      1.000000
X_202_20                      1.000000
X_203_20                      1.000000
X_204_24                      1.000000
X_205_15                      1.000000
X_206_32                      1.000000
X_207_8                       1.000000
X_208_15                      1.000000
X_209_20                      1.000000
X_210_9                       1.000000
X_211_15                      1.000000
X_212_8                       1.000000
X_213_3                       1.000000
X_214_24                      1.000000
X_215_2                       1.000000
X_216_13                      1.000000
X_217_12                      1.000000
X_218_40                      1.000000
X_219_8                       1.000000
X_220_21                      1.000000
X_221_20                      1.000000
X_222_15                      1.000000
X_223_15                      1.000000
X_224_8                       1.000000
X_225_24                      1.000000
X_226_15                      1.000000
X_227_20                      1.000000
X_228_20                      1.000000
X_229_38                      1.000000
X_230_32                      1.000000
X_231_26                      1.000000
X_232_8                       1.000000
X_233_15                      1.000000
X_234_10                      1.000000
X_235_6                       1.000000
X_236_5                       1.000000
X_237_20                      1.000000
X_238_35                      1.000000
X_239_15                      1.000000
X_240_20                      1.000000
X_241_34                      1.000000
X_242_28                      1.000000
X_243_15                      1.000000
X_244_8                       1.000000
X_245_36                      1.000000
X_246_15                      1.000000
X_247_35                      1.000000
X_248_8                       1.000000
X_249_35                      1.000000
X_250_8                       1.000000
X_251_2                       1.000000
X_252_4                       1.000000
X_253_8                       1.000000
X_254_14                      1.000000
X_255_24                      1.000000
X_256_20                      1.000000
X_257_15                      1.000000
X_258_38                      1.000000
X_259_20                      1.000000
X_260_37                      1.000000
X_261_37                      1.000000
X_262_18                      1.000000
X_263_15                      1.000000
X_264_15                      1.000000
X_265_23                      1.000000
X_266_8                       1.000000
X_267_20                      1.000000
X_268_15                      1.000000
X_269_16                      1.000000
X_270_15                      1.000000
X_271_8                       1.000000
X_272_13                      1.000000
X_273_15                      1.000000
X_274_15                      1.000000
X_275_16                      1.000000
X_276_7                       1.000000
X_277_8                       1.000000
X_278_26                      1.000000
X_279_8                       1.000000
X_280_8                       1.000000
X_281_25                      1.000000
X_282_25                      1.000000
X_283_20                      1.000000
X_284_32                      1.000000
X_285_8                       1.000000
X_286_32                      1.000000
X_287_15                      1.000000
X_288_15                      1.000000
X_289_33                      1.000000
X_290_24                      1.000000
X_291_15                      1.000000
X_292_5                       1.000000
X_293_9                       1.000000
X_294_8                       1.000000
X_295_4                       1.000000
X_296_38                      1.000000
X_297_20                      1.000000
X_298_17                      1.000000
X_299_24                      1.000000
X_300_18                      1.000000
X_301_16                      1.000000
X_302_16                      1.000000
X_303_24                      1.000000
X_304_18                      1.000000
X_305_8                       1.000000
X_306_8                       1.000000
X_307_5                       1.000000
X_308_23                      1.000000
X_309_11                      1.000000
X_310_28                      1.000000
X_311_14                      1.000000
X_312_8                       1.000000
X_313_8                       1.000000
X_314_15                      1.000000
X_315_35                      1.000000
X_316_9                       1.000000
X_317_39                      1.000000
X_318_8                       1.000000
X_319_35                      1.000000
X_320_25                      1.000000
X_321_38                      1.000000
X_322_15                      1.000000
X_323_32                      1.000000
X_324_25                      1.000000
X_325_8                       1.000000
X_326_10                      1.000000
X_327_24                      1.000000
X_328_32                      1.000000
X_329_15                      1.000000
X_330_19                      1.000000
X_331_28                      1.000000
X_332_18                      1.000000
X_333_8                       1.000000
X_334_15                      1.000000
X_335_24                      1.000000
X_336_35                      1.000000
X_337_35                      1.000000
X_338_28                      1.000000
X_339_11                      1.000000
X_340_8                       1.000000
X_341_28                      1.000000
X_342_14                      1.000000
X_343_8                       1.000000
X_344_14                      1.000000
X_345_35                      1.000000
X_346_32                      1.000000
X_347_40                      1.000000
X_348_10                      1.000000
X_349_36                      1.000000
X_350_28                      1.000000
X_351_12                      1.000000
X_352_26                      1.000000
X_353_4                       1.000000
X_354_35                      1.000000
X_355_36                      1.000000
X_356_24                      1.000000
X_357_37                      1.000000
X_358_8                       1.000000
X_359_15                      1.000000
X_360_4                       1.000000
X_361_34                      1.000000
X_362_8                       1.000000
X_363_35                      1.000000
X_364_8                       1.000000
X_365_15                      1.000000
X_366_25                      1.000000
X_367_6                       1.000000
X_368_37                      1.000000
X_369_5                       1.000000
X_370_15                      1.000000
X_371_13                      1.000000
X_372_35                      1.000000
X_373_8                       1.000000
X_374_28                      1.000000
X_375_20                      1.000000
X_376_13                      1.000000
X_377_15                      1.000000
X_378_5                       1.000000
X_379_20                      1.000000
X_380_9                       1.000000
X_381_8                       1.000000
X_382_8                       1.000000
X_383_15                      1.000000
X_384_8                       1.000000
X_385_31                      1.000000
X_386_19                      1.000000
X_387_32                      1.000000
X_388_14                      1.000000
X_389_8                       1.000000
X_390_9                       1.000000
X_391_27                      1.000000
X_392_4                       1.000000
X_393_15                      1.000000
X_394_37                      1.000000
X_395_15                      1.000000
X_396_35                      1.000000
X_397_32                      1.000000
X_398_20                      1.000000
X_399_15                      1.000000
X_400_24                      1.000000
X_401_15                      1.000000
X_402_28                      1.000000
X_403_25                      1.000000
X_404_35                      1.000000
X_405_20                      1.000000
X_406_15                      1.000000
X_407_36                      1.000000
X_408_15                      1.000000
X_409_35                      1.000000
X_410_15                      1.000000
X_411_17                      1.000000
X_412_33                      1.000000
X_413_16                      1.000000
X_414_8                       1.000000
X_415_39                      1.000000
X_416_36                      1.000000
X_417_15                      1.000000
X_418_36                      1.000000
X_419_17                      1.000000
X_420_15                      1.000000
X_421_8                       1.000000
X_422_8                       1.000000
X_423_15                      1.000000
X_424_30                      1.000000
X_425_20                      1.000000
X_426_38                      1.000000
X_427_24                      1.000000
X_428_15                      1.000000
X_429_24                      1.000000
X_430_20                      1.000000
X_431_8                       1.000000
X_432_15                      1.000000
X_433_8                       1.000000
X_434_8                       1.000000
X_435_15                      1.000000
X_436_19                      1.000000
X_437_32                      1.000000
X_438_15                      1.000000
X_439_8                       1.000000
X_440_30                      1.000000
X_441_39                      1.000000
X_442_10                      1.000000
X_443_35                      1.000000
X_444_20                      1.000000
X_445_20                      1.000000
X_446_29                      1.000000
X_447_23                      1.000000
X_448_18                      1.000000
X_449_35                      1.000000
X_450_36                      1.000000
X_451_40                      1.000000
X_452_8                       1.000000
X_453_35                      1.000000
X_454_4                       1.000000
X_455_17                      1.000000
X_456_28                      1.000000
X_457_24                      1.000000
X_458_25                      1.000000
X_459_25                      1.000000
X_460_8                       1.000000
X_461_27                      1.000000
X_462_25                      1.000000
X_463_15                      1.000000
X_464_8                       1.000000
X_465_15                      1.000000
X_466_3                       1.000000
X_467_15                      1.000000
X_468_24                      1.000000
X_469_15                      1.000000
X_470_3                       1.000000
X_471_24                      1.000000
X_472_8                       1.000000
X_473_27                      1.000000
X_474_20                      1.000000
X_475_8                       1.000000
X_476_8                       1.000000
X_477_24                      1.000000
X_478_24                      1.000000
X_479_15                      1.000000
X_480_32                      1.000000
X_481_5                       1.000000
X_482_37                      1.000000
X_483_20                      1.000000
X_484_9                       1.000000
X_485_28                      1.000000
X_486_25                      1.000000
X_487_8                       1.000000
X_488_15                      1.000000
X_489_8                       1.000000
X_490_15                      1.000000
X_491_32                      1.000000
X_492_7                       1.000000
X_493_24                      1.000000
X_494_16                      1.000000
X_495_28                      1.000000
X_496_8                       1.000000
X_497_30                      1.000000
X_498_22                      1.000000
X_499_28                      1.000000
X_500_32                      1.000000
All other variables in the range 1-20001 are 0.
